105369
6 98 18 66 5 63 51 58 1 25 28 22 91 11 75 19 96 57 70 9 84 27 83 88 3 82 7 80 0 29 32 13 21 72 41 34 2 77 47 23 95 30 37 97 65 35 60 52 56 54 99 53 76 36 71 15 59 61 17 93 39 46 44 14 69 40 81 89 4 68 31 50 49 38 20 55 45 16 74 64 92 33 26 8 94 85 24 43 10 86 87 90 78 12 67 62 42 73 79 48 
